

*************************************************************

   NEOS Server Version 6.0
   Job#     : 15893326
   Password : IsiCjJDw
   User     : 
   Solver   : milp:HiGHS:AMPL
   Start    : 2025-04-16 08:51:44
   End      : 2025-04-16 08:52:01
   Host     : prod-sub-1.neos-server.org

   Disclaimer:

   This information is provided without any express or
   implied warranty. In particular, there is no warranty
   of any kind concerning the fitness of this
   information for any particular purpose.

   Announcements:
*************************************************************
You are using the solver highsampl.
Checking ampl.mod for highsampl_options...
Checking ampl.com for highsampl_options...
Executing AMPL.
processing data.
processing commands.
Executing on prod-exec-6.neos-server.org
C = 5

set N := 1 2 3 4;

:   P    W    :=
1    2   1
2    8   2
3   15   3
4   12   4
;

subject to C_capacity:
	X[1] + 2*X[2] + 3*X[3] + 4*X[4] <= 5;

maximize objective_function:
	2*X[1] + 8*X[2] + 15*X[3] + 12*X[4];


"option presolve 10;" used, but "option presolve 2;" would suffice.
4 variables:
	2 binary variables
	2 integer variables
1 constraint, all linear; 4 nonzeros
	1 inequality constraint
1 linear objective; 4 nonzeros.

HiGHS 1.7.0:   tech:outlev = 1
Running HiGHS 1.7.0 (git hash: 50670fd): Copyright (c) 2024 HiGHS under MIT licence terms
Coefficient ranges:
  Matrix [1e+00, 4e+00]
  Cost   [2e+00, 2e+01]
  Bound  [1e+00, 5e+00]
  RHS    [5e+00, 5e+00]
Presolving model
1 rows, 4 cols, 4 nonzeros  0s
1 rows, 3 cols, 3 nonzeros  0s
Objective function is integral with scale 1

Solving MIP model with:
   1 rows
   3 cols (1 binary, 2 integer, 0 implied int., 0 continuous)
   3 nonzeros

        Nodes      |    B&B Tree     |            Objective Bounds              |  Dynamic Constraints |       Work      
     Proc. InQueue |  Leaves   Expl. | BestBound       BestSol              Gap |   Cuts   InLp Confl. | LpIters     Time

         0       0         0   0.00%   41              -inf                 inf        0      0      0         0     0.0s
 T       0       0         0   0.00%   41              23                78.26%        0      0      0         1     0.0s

Solving report
  Status            Optimal
  Primal bound      23
  Dual bound        23
  Gap               0% (tolerance: 0.01%)
  Solution status   feasible
                    23 (objective)
                    0 (bound viol.)
                    0 (int. viol.)
                    0 (row viol.)
  Timing            0.00 (total)
                    0.00 (presolve)
                    0.00 (postsolve)
  Nodes             1
  LP iterations     1 (total)
                    0 (strong br.)
                    0 (separation)
                    0 (heuristics)
HiGHS 1.7.0: optimal solution; objective 23
1 simplex iterations
1 branching nodes
objective_function = 23

X [*] :=
1  0
2  1
3  1
4  0
;

NEOS Server Home
